
;this file is automatically generated: Wed Apr 21 11:03:26 CST 2021

;declarations generated

(declare-fun class10_Class10IntAttr3 ( Int) Int)
(declare-fun class10_Class10IntAttr4 ( Int) Int)
(declare-fun oclExcludes ( Int Int) Bool)
(declare-fun Cardinality ( Int) Int)
(declare-fun type_a4ca0b7e_608c_4aec_adac_4f14dcbe82ab_Class1 ( Int) Bool)
(declare-fun type_a4ca0b7e_608c_4aec_adac_4f14dcbe82ab_Class0 ( Int) Bool)
(declare-fun obj_62e77df5_d68d_4120_8f95_698decbc0eea ( Int) Int)
(declare-fun type_a4ca0b7e_608c_4aec_adac_4f14dcbe82ab_Class3 ( Int) Bool)
(declare-fun type_a4ca0b7e_608c_4aec_adac_4f14dcbe82ab_Class2 ( Int) Bool)
(declare-fun type_a4ca0b7e_608c_4aec_adac_4f14dcbe82ab_Class5 ( Int) Bool)
(declare-fun type_a4ca0b7e_608c_4aec_adac_4f14dcbe82ab_Class4 ( Int) Bool)
(declare-fun type_a4ca0b7e_608c_4aec_adac_4f14dcbe82ab_Class7 ( Int) Bool)
(declare-fun type_a4ca0b7e_608c_4aec_adac_4f14dcbe82ab_Class6 ( Int) Bool)
(declare-fun type_a4ca0b7e_608c_4aec_adac_4f14dcbe82ab_Class9 ( Int) Bool)
(declare-fun type_a4ca0b7e_608c_4aec_adac_4f14dcbe82ab_Class8 ( Int) Bool)
(declare-fun type_a4ca0b7e_608c_4aec_adac_4f14dcbe82ab_Class30 ( Int) Bool)
(declare-fun type_a4ca0b7e_608c_4aec_adac_4f14dcbe82ab_Class29 ( Int) Bool)
(declare-fun type_a4ca0b7e_608c_4aec_adac_4f14dcbe82ab_Class28 ( Int) Bool)
(declare-fun type_a4ca0b7e_608c_4aec_adac_4f14dcbe82ab_Class21 ( Int) Bool)
(declare-fun type_a4ca0b7e_608c_4aec_adac_4f14dcbe82ab_Class20 ( Int) Bool)
(declare-fun type_a4ca0b7e_608c_4aec_adac_4f14dcbe82ab_Class23 ( Int) Bool)
(declare-fun type_a4ca0b7e_608c_4aec_adac_4f14dcbe82ab_Class22 ( Int) Bool)
(declare-fun type_a4ca0b7e_608c_4aec_adac_4f14dcbe82ab_Class25 ( Int) Bool)
(declare-fun type_a4ca0b7e_608c_4aec_adac_4f14dcbe82ab_Class24 ( Int) Bool)
(declare-fun type_a4ca0b7e_608c_4aec_adac_4f14dcbe82ab_Class27 ( Int) Bool)
(declare-fun type_a4ca0b7e_608c_4aec_adac_4f14dcbe82ab_Class26 ( Int) Bool)
(declare-fun type_a4ca0b7e_608c_4aec_adac_4f14dcbe82ab_Class18 ( Int) Bool)
(declare-fun type_a4ca0b7e_608c_4aec_adac_4f14dcbe82ab_Class17 ( Int) Bool)
(declare-fun type_a4ca0b7e_608c_4aec_adac_4f14dcbe82ab_Class19 ( Int) Bool)
(declare-fun type_a4ca0b7e_608c_4aec_adac_4f14dcbe82ab_Class10 ( Int) Bool)
(declare-fun type_a4ca0b7e_608c_4aec_adac_4f14dcbe82ab_Class12 ( Int) Bool)
(declare-fun type_a4ca0b7e_608c_4aec_adac_4f14dcbe82ab_Class11 ( Int) Bool)
(declare-fun type_a4ca0b7e_608c_4aec_adac_4f14dcbe82ab_Class14 ( Int) Bool)
(declare-fun type_a4ca0b7e_608c_4aec_adac_4f14dcbe82ab_Class13 ( Int) Bool)
(declare-fun type_a4ca0b7e_608c_4aec_adac_4f14dcbe82ab_Class16 ( Int) Bool)
(declare-fun type_a4ca0b7e_608c_4aec_adac_4f14dcbe82ab_Class15 ( Int) Bool)
(declare-fun type_a4ca0b7e_608c_4aec_adac_4f14dcbe82ab_Class50 ( Int) Bool)
(declare-fun type_a4ca0b7e_608c_4aec_adac_4f14dcbe82ab_Class52 ( Int) Bool)
(declare-fun type_a4ca0b7e_608c_4aec_adac_4f14dcbe82ab_Class51 ( Int) Bool)
(declare-fun type_a4ca0b7e_608c_4aec_adac_4f14dcbe82ab_Class43 ( Int) Bool)
(declare-fun type_a4ca0b7e_608c_4aec_adac_4f14dcbe82ab_Class42 ( Int) Bool)
(declare-fun type_a4ca0b7e_608c_4aec_adac_4f14dcbe82ab_Class45 ( Int) Bool)
(declare-fun type_a4ca0b7e_608c_4aec_adac_4f14dcbe82ab_Class44 ( Int) Bool)
(declare-fun type_a4ca0b7e_608c_4aec_adac_4f14dcbe82ab_Class47 ( Int) Bool)
(declare-fun type_a4ca0b7e_608c_4aec_adac_4f14dcbe82ab_Class46 ( Int) Bool)
(declare-fun type_a4ca0b7e_608c_4aec_adac_4f14dcbe82ab_Class49 ( Int) Bool)
(declare-fun type_a4ca0b7e_608c_4aec_adac_4f14dcbe82ab_Class48 ( Int) Bool)
(declare-fun type_a4ca0b7e_608c_4aec_adac_4f14dcbe82ab_Class41 ( Int) Bool)
(declare-fun type_a4ca0b7e_608c_4aec_adac_4f14dcbe82ab_Class40 ( Int) Bool)
(declare-fun oclSelect ( Int Bool) Int)
(declare-fun type_a4ca0b7e_608c_4aec_adac_4f14dcbe82ab_Class39 ( Int) Bool)
(declare-fun type_a4ca0b7e_608c_4aec_adac_4f14dcbe82ab_Class32 ( Int) Bool)
(declare-fun type_a4ca0b7e_608c_4aec_adac_4f14dcbe82ab_Class31 ( Int) Bool)
(declare-fun type_a4ca0b7e_608c_4aec_adac_4f14dcbe82ab_Class34 ( Int) Bool)
(declare-fun type_a4ca0b7e_608c_4aec_adac_4f14dcbe82ab_Class33 ( Int) Bool)
(declare-fun type_a4ca0b7e_608c_4aec_adac_4f14dcbe82ab_Class36 ( Int) Bool)
(declare-fun type_a4ca0b7e_608c_4aec_adac_4f14dcbe82ab_Class35 ( Int) Bool)
(declare-fun type_a4ca0b7e_608c_4aec_adac_4f14dcbe82ab_Class38 ( Int) Bool)
(declare-fun type_a4ca0b7e_608c_4aec_adac_4f14dcbe82ab_Class37 ( Int) Bool)
(declare-fun type_a4ca0b7e_608c_4aec_adac_4f14dcbe82ab_Class54 ( Int) Bool)
(declare-fun type_a4ca0b7e_608c_4aec_adac_4f14dcbe82ab_Class53 ( Int) Bool)
(declare-fun type_a4ca0b7e_608c_4aec_adac_4f14dcbe82ab_Class56 ( Int) Bool)
(declare-fun type_a4ca0b7e_608c_4aec_adac_4f14dcbe82ab_Class55 ( Int) Bool)
(declare-fun Enum0 ( Int) Int)
(declare-fun Enum1 ( Int) Int)
(declare-fun Enum2 ( Int) Int)
(declare-fun container_ ( Int) Int)
(declare-fun oclIncludes ( Int Int) Bool)
(declare-fun ObjAt ( Int Int) Int)

;formula(s) generated
(assert (forall ((p Int)) (=> ( type_a4ca0b7e_608c_4aec_adac_4f14dcbe82ab_Class10 p )  (and (>= ( Enum1 ( obj_62e77df5_d68d_4120_8f95_698decbc0eea p )  )  0) (<= ( Enum1 ( obj_62e77df5_d68d_4120_8f95_698decbc0eea p )  )  13)))))
(assert (! (forall ((c0_1 Int)(c0_2 Int)) (=> (and (and (and ( type_a4ca0b7e_608c_4aec_adac_4f14dcbe82ab_Class10 c0_1 )  ( type_a4ca0b7e_608c_4aec_adac_4f14dcbe82ab_Class15 c0_1 ) ) ( type_a4ca0b7e_608c_4aec_adac_4f14dcbe82ab_Class21 c0_1 ) ) (and (and ( type_a4ca0b7e_608c_4aec_adac_4f14dcbe82ab_Class10 c0_2 )  ( type_a4ca0b7e_608c_4aec_adac_4f14dcbe82ab_Class15 c0_2 ) ) ( type_a4ca0b7e_608c_4aec_adac_4f14dcbe82ab_Class21 c0_2 ) )) (not (= ( class10_Class10IntAttr4 ( obj_62e77df5_d68d_4120_8f95_698decbc0eea c0_1 )  )  ( class10_Class10IntAttr3 ( obj_62e77df5_d68d_4120_8f95_698decbc0eea c0_2 )  ) ) ))):named l0))
(assert (! (forall ((c0_1 Int)(c0_2 Int)) (=> (and (and (and ( type_a4ca0b7e_608c_4aec_adac_4f14dcbe82ab_Class10 c0_1 )  ( type_a4ca0b7e_608c_4aec_adac_4f14dcbe82ab_Class15 c0_1 ) ) ( type_a4ca0b7e_608c_4aec_adac_4f14dcbe82ab_Class21 c0_1 ) ) (and (and ( type_a4ca0b7e_608c_4aec_adac_4f14dcbe82ab_Class10 c0_2 )  ( type_a4ca0b7e_608c_4aec_adac_4f14dcbe82ab_Class15 c0_2 ) ) ( type_a4ca0b7e_608c_4aec_adac_4f14dcbe82ab_Class21 c0_2 ) )) (<= ( class10_Class10IntAttr4 ( obj_62e77df5_d68d_4120_8f95_698decbc0eea c0_1 )  )  ( class10_Class10IntAttr3 ( obj_62e77df5_d68d_4120_8f95_698decbc0eea c0_2 )  ) ))):named l1))
(assert (! (exists ((c1 Int)(c2 Int)) (and (and (and (and ( type_a4ca0b7e_608c_4aec_adac_4f14dcbe82ab_Class10 c1 )  ( type_a4ca0b7e_608c_4aec_adac_4f14dcbe82ab_Class15 c1 ) ) ( type_a4ca0b7e_608c_4aec_adac_4f14dcbe82ab_Class21 c1 ) ) (and (and ( type_a4ca0b7e_608c_4aec_adac_4f14dcbe82ab_Class10 c2 )  ( type_a4ca0b7e_608c_4aec_adac_4f14dcbe82ab_Class15 c2 ) ) ( type_a4ca0b7e_608c_4aec_adac_4f14dcbe82ab_Class21 c2 ) )) (forall ((v Int)) (=> (and (and ( type_a4ca0b7e_608c_4aec_adac_4f14dcbe82ab_Class10 v )  ( type_a4ca0b7e_608c_4aec_adac_4f14dcbe82ab_Class15 v ) ) ( type_a4ca0b7e_608c_4aec_adac_4f14dcbe82ab_Class21 v ) ) (> ( class10_Class10IntAttr3 ( obj_62e77df5_d68d_4120_8f95_698decbc0eea v )  )  ( class10_Class10IntAttr4 ( obj_62e77df5_d68d_4120_8f95_698decbc0eea c1 )  ) ))))):named l2))
(assert (! (exists ((c1 Int)) (and (and (and ( type_a4ca0b7e_608c_4aec_adac_4f14dcbe82ab_Class10 c1 )  ( type_a4ca0b7e_608c_4aec_adac_4f14dcbe82ab_Class15 c1 ) ) ( type_a4ca0b7e_608c_4aec_adac_4f14dcbe82ab_Class21 c1 ) ) (not (= ( Enum1 ( obj_62e77df5_d68d_4120_8f95_698decbc0eea c1 )  )  8) ))):named l3))
(assert (! (forall ((v Int)) (=> (and (and ( type_a4ca0b7e_608c_4aec_adac_4f14dcbe82ab_Class10 v )  ( type_a4ca0b7e_608c_4aec_adac_4f14dcbe82ab_Class15 v ) ) ( type_a4ca0b7e_608c_4aec_adac_4f14dcbe82ab_Class21 v ) ) (or (<= ( class10_Class10IntAttr3 ( obj_62e77df5_d68d_4120_8f95_698decbc0eea v )  )  10) (or (forall ((v Int)) (=> (and (and ( type_a4ca0b7e_608c_4aec_adac_4f14dcbe82ab_Class10 v )  ( type_a4ca0b7e_608c_4aec_adac_4f14dcbe82ab_Class15 v ) ) ( type_a4ca0b7e_608c_4aec_adac_4f14dcbe82ab_Class21 v ) ) (= ( Enum1 ( obj_62e77df5_d68d_4120_8f95_698decbc0eea v )  )  8))) (forall ((v Int)) (=> (and (and ( type_a4ca0b7e_608c_4aec_adac_4f14dcbe82ab_Class10 v )  ( type_a4ca0b7e_608c_4aec_adac_4f14dcbe82ab_Class15 v ) ) ( type_a4ca0b7e_608c_4aec_adac_4f14dcbe82ab_Class21 v ) ) (<= ( class10_Class10IntAttr3 ( obj_62e77df5_d68d_4120_8f95_698decbc0eea v )  )  19))))))):named l4))
(assert (! (exists ((o Int)) (and (and (and (and (and (and ( type_a4ca0b7e_608c_4aec_adac_4f14dcbe82ab_Class0 ( obj_62e77df5_d68d_4120_8f95_698decbc0eea o )  )  ( type_a4ca0b7e_608c_4aec_adac_4f14dcbe82ab_Class44 ( obj_62e77df5_d68d_4120_8f95_698decbc0eea o )  ) ) ( type_a4ca0b7e_608c_4aec_adac_4f14dcbe82ab_Class36 ( obj_62e77df5_d68d_4120_8f95_698decbc0eea o )  ) ) ( type_a4ca0b7e_608c_4aec_adac_4f14dcbe82ab_Class35 ( obj_62e77df5_d68d_4120_8f95_698decbc0eea o )  ) ) ( type_a4ca0b7e_608c_4aec_adac_4f14dcbe82ab_Class27 ( obj_62e77df5_d68d_4120_8f95_698decbc0eea o )  ) ) ( type_a4ca0b7e_608c_4aec_adac_4f14dcbe82ab_Class15 ( obj_62e77df5_d68d_4120_8f95_698decbc0eea o )  ) ) ( type_a4ca0b7e_608c_4aec_adac_4f14dcbe82ab_Class28 ( obj_62e77df5_d68d_4120_8f95_698decbc0eea o )  ) )):named c0))
(assert (! (exists ((o Int)) ( type_a4ca0b7e_608c_4aec_adac_4f14dcbe82ab_Class1 ( obj_62e77df5_d68d_4120_8f95_698decbc0eea o )  ) ):named c1))
(assert (! (exists ((o Int)) (and (and ( type_a4ca0b7e_608c_4aec_adac_4f14dcbe82ab_Class10 ( obj_62e77df5_d68d_4120_8f95_698decbc0eea o )  )  ( type_a4ca0b7e_608c_4aec_adac_4f14dcbe82ab_Class15 ( obj_62e77df5_d68d_4120_8f95_698decbc0eea o )  ) ) ( type_a4ca0b7e_608c_4aec_adac_4f14dcbe82ab_Class21 ( obj_62e77df5_d68d_4120_8f95_698decbc0eea o )  ) )):named c2))
(assert (! (exists ((o Int)) ( type_a4ca0b7e_608c_4aec_adac_4f14dcbe82ab_Class11 ( obj_62e77df5_d68d_4120_8f95_698decbc0eea o )  ) ):named c3))
(assert (! (exists ((o Int)) (and (and ( type_a4ca0b7e_608c_4aec_adac_4f14dcbe82ab_Class12 ( obj_62e77df5_d68d_4120_8f95_698decbc0eea o )  )  ( type_a4ca0b7e_608c_4aec_adac_4f14dcbe82ab_Class33 ( obj_62e77df5_d68d_4120_8f95_698decbc0eea o )  ) ) ( type_a4ca0b7e_608c_4aec_adac_4f14dcbe82ab_Class15 ( obj_62e77df5_d68d_4120_8f95_698decbc0eea o )  ) )):named c4))
(assert (! (exists ((o Int)) ( type_a4ca0b7e_608c_4aec_adac_4f14dcbe82ab_Class13 ( obj_62e77df5_d68d_4120_8f95_698decbc0eea o )  ) ):named c5))
(assert (! (exists ((o Int)) (and (and (and (and (and (and ( type_a4ca0b7e_608c_4aec_adac_4f14dcbe82ab_Class14 ( obj_62e77df5_d68d_4120_8f95_698decbc0eea o )  )  ( type_a4ca0b7e_608c_4aec_adac_4f14dcbe82ab_Class36 ( obj_62e77df5_d68d_4120_8f95_698decbc0eea o )  ) ) ( type_a4ca0b7e_608c_4aec_adac_4f14dcbe82ab_Class35 ( obj_62e77df5_d68d_4120_8f95_698decbc0eea o )  ) ) ( type_a4ca0b7e_608c_4aec_adac_4f14dcbe82ab_Class27 ( obj_62e77df5_d68d_4120_8f95_698decbc0eea o )  ) ) ( type_a4ca0b7e_608c_4aec_adac_4f14dcbe82ab_Class9 ( obj_62e77df5_d68d_4120_8f95_698decbc0eea o )  ) ) ( type_a4ca0b7e_608c_4aec_adac_4f14dcbe82ab_Class15 ( obj_62e77df5_d68d_4120_8f95_698decbc0eea o )  ) ) ( type_a4ca0b7e_608c_4aec_adac_4f14dcbe82ab_Class28 ( obj_62e77df5_d68d_4120_8f95_698decbc0eea o )  ) )):named c6))
(assert (! (exists ((o Int)) ( type_a4ca0b7e_608c_4aec_adac_4f14dcbe82ab_Class15 ( obj_62e77df5_d68d_4120_8f95_698decbc0eea o )  ) ):named c7))
(assert (! (exists ((o Int)) ( type_a4ca0b7e_608c_4aec_adac_4f14dcbe82ab_Class16 ( obj_62e77df5_d68d_4120_8f95_698decbc0eea o )  ) ):named c8))
(assert (! (exists ((o Int)) (and (and (and (and (and (and ( type_a4ca0b7e_608c_4aec_adac_4f14dcbe82ab_Class17 ( obj_62e77df5_d68d_4120_8f95_698decbc0eea o )  )  ( type_a4ca0b7e_608c_4aec_adac_4f14dcbe82ab_Class44 ( obj_62e77df5_d68d_4120_8f95_698decbc0eea o )  ) ) ( type_a4ca0b7e_608c_4aec_adac_4f14dcbe82ab_Class36 ( obj_62e77df5_d68d_4120_8f95_698decbc0eea o )  ) ) ( type_a4ca0b7e_608c_4aec_adac_4f14dcbe82ab_Class35 ( obj_62e77df5_d68d_4120_8f95_698decbc0eea o )  ) ) ( type_a4ca0b7e_608c_4aec_adac_4f14dcbe82ab_Class27 ( obj_62e77df5_d68d_4120_8f95_698decbc0eea o )  ) ) ( type_a4ca0b7e_608c_4aec_adac_4f14dcbe82ab_Class15 ( obj_62e77df5_d68d_4120_8f95_698decbc0eea o )  ) ) ( type_a4ca0b7e_608c_4aec_adac_4f14dcbe82ab_Class28 ( obj_62e77df5_d68d_4120_8f95_698decbc0eea o )  ) )):named c9))
(assert (! (exists ((o Int)) ( type_a4ca0b7e_608c_4aec_adac_4f14dcbe82ab_Class18 ( obj_62e77df5_d68d_4120_8f95_698decbc0eea o )  ) ):named c10))
(assert (! (exists ((o Int)) (and (and (and (and (and (and ( type_a4ca0b7e_608c_4aec_adac_4f14dcbe82ab_Class19 ( obj_62e77df5_d68d_4120_8f95_698decbc0eea o )  )  ( type_a4ca0b7e_608c_4aec_adac_4f14dcbe82ab_Class36 ( obj_62e77df5_d68d_4120_8f95_698decbc0eea o )  ) ) ( type_a4ca0b7e_608c_4aec_adac_4f14dcbe82ab_Class35 ( obj_62e77df5_d68d_4120_8f95_698decbc0eea o )  ) ) ( type_a4ca0b7e_608c_4aec_adac_4f14dcbe82ab_Class27 ( obj_62e77df5_d68d_4120_8f95_698decbc0eea o )  ) ) ( type_a4ca0b7e_608c_4aec_adac_4f14dcbe82ab_Class9 ( obj_62e77df5_d68d_4120_8f95_698decbc0eea o )  ) ) ( type_a4ca0b7e_608c_4aec_adac_4f14dcbe82ab_Class15 ( obj_62e77df5_d68d_4120_8f95_698decbc0eea o )  ) ) ( type_a4ca0b7e_608c_4aec_adac_4f14dcbe82ab_Class28 ( obj_62e77df5_d68d_4120_8f95_698decbc0eea o )  ) )):named c11))
(assert (! (exists ((o Int)) (and (and (and (and (and (and ( type_a4ca0b7e_608c_4aec_adac_4f14dcbe82ab_Class2 ( obj_62e77df5_d68d_4120_8f95_698decbc0eea o )  )  ( type_a4ca0b7e_608c_4aec_adac_4f14dcbe82ab_Class36 ( obj_62e77df5_d68d_4120_8f95_698decbc0eea o )  ) ) ( type_a4ca0b7e_608c_4aec_adac_4f14dcbe82ab_Class35 ( obj_62e77df5_d68d_4120_8f95_698decbc0eea o )  ) ) ( type_a4ca0b7e_608c_4aec_adac_4f14dcbe82ab_Class27 ( obj_62e77df5_d68d_4120_8f95_698decbc0eea o )  ) ) ( type_a4ca0b7e_608c_4aec_adac_4f14dcbe82ab_Class15 ( obj_62e77df5_d68d_4120_8f95_698decbc0eea o )  ) ) ( type_a4ca0b7e_608c_4aec_adac_4f14dcbe82ab_Class28 ( obj_62e77df5_d68d_4120_8f95_698decbc0eea o )  ) ) ( type_a4ca0b7e_608c_4aec_adac_4f14dcbe82ab_Class54 ( obj_62e77df5_d68d_4120_8f95_698decbc0eea o )  ) )):named c12))
(assert (! (exists ((o Int)) (and ( type_a4ca0b7e_608c_4aec_adac_4f14dcbe82ab_Class20 ( obj_62e77df5_d68d_4120_8f95_698decbc0eea o )  )  ( type_a4ca0b7e_608c_4aec_adac_4f14dcbe82ab_Class15 ( obj_62e77df5_d68d_4120_8f95_698decbc0eea o )  ) )):named c13))
(assert (! (exists ((o Int)) (and ( type_a4ca0b7e_608c_4aec_adac_4f14dcbe82ab_Class21 ( obj_62e77df5_d68d_4120_8f95_698decbc0eea o )  )  ( type_a4ca0b7e_608c_4aec_adac_4f14dcbe82ab_Class15 ( obj_62e77df5_d68d_4120_8f95_698decbc0eea o )  ) )):named c14))
(assert (! (exists ((o Int)) (and (and (and ( type_a4ca0b7e_608c_4aec_adac_4f14dcbe82ab_Class22 ( obj_62e77df5_d68d_4120_8f95_698decbc0eea o )  )  ( type_a4ca0b7e_608c_4aec_adac_4f14dcbe82ab_Class15 ( obj_62e77df5_d68d_4120_8f95_698decbc0eea o )  ) ) ( type_a4ca0b7e_608c_4aec_adac_4f14dcbe82ab_Class48 ( obj_62e77df5_d68d_4120_8f95_698decbc0eea o )  ) ) ( type_a4ca0b7e_608c_4aec_adac_4f14dcbe82ab_Class43 ( obj_62e77df5_d68d_4120_8f95_698decbc0eea o )  ) )):named c15))
(assert (! (exists ((o Int)) ( type_a4ca0b7e_608c_4aec_adac_4f14dcbe82ab_Class23 ( obj_62e77df5_d68d_4120_8f95_698decbc0eea o )  ) ):named c16))
(assert (! (exists ((o Int)) ( type_a4ca0b7e_608c_4aec_adac_4f14dcbe82ab_Class24 ( obj_62e77df5_d68d_4120_8f95_698decbc0eea o )  ) ):named c17))
(assert (! (exists ((o Int)) (and (and (and ( type_a4ca0b7e_608c_4aec_adac_4f14dcbe82ab_Class25 ( obj_62e77df5_d68d_4120_8f95_698decbc0eea o )  )  ( type_a4ca0b7e_608c_4aec_adac_4f14dcbe82ab_Class12 ( obj_62e77df5_d68d_4120_8f95_698decbc0eea o )  ) ) ( type_a4ca0b7e_608c_4aec_adac_4f14dcbe82ab_Class33 ( obj_62e77df5_d68d_4120_8f95_698decbc0eea o )  ) ) ( type_a4ca0b7e_608c_4aec_adac_4f14dcbe82ab_Class15 ( obj_62e77df5_d68d_4120_8f95_698decbc0eea o )  ) )):named c18))
(assert (! (exists ((o Int)) ( type_a4ca0b7e_608c_4aec_adac_4f14dcbe82ab_Class26 ( obj_62e77df5_d68d_4120_8f95_698decbc0eea o )  ) ):named c19))
(assert (! (exists ((o Int)) (and ( type_a4ca0b7e_608c_4aec_adac_4f14dcbe82ab_Class27 ( obj_62e77df5_d68d_4120_8f95_698decbc0eea o )  )  ( type_a4ca0b7e_608c_4aec_adac_4f14dcbe82ab_Class15 ( obj_62e77df5_d68d_4120_8f95_698decbc0eea o )  ) )):named c20))
(assert (! (exists ((o Int)) (and (and ( type_a4ca0b7e_608c_4aec_adac_4f14dcbe82ab_Class28 ( obj_62e77df5_d68d_4120_8f95_698decbc0eea o )  )  ( type_a4ca0b7e_608c_4aec_adac_4f14dcbe82ab_Class27 ( obj_62e77df5_d68d_4120_8f95_698decbc0eea o )  ) ) ( type_a4ca0b7e_608c_4aec_adac_4f14dcbe82ab_Class15 ( obj_62e77df5_d68d_4120_8f95_698decbc0eea o )  ) )):named c21))
(assert (! (exists ((o Int)) (and (and (and (and (and ( type_a4ca0b7e_608c_4aec_adac_4f14dcbe82ab_Class29 ( obj_62e77df5_d68d_4120_8f95_698decbc0eea o )  )  ( type_a4ca0b7e_608c_4aec_adac_4f14dcbe82ab_Class36 ( obj_62e77df5_d68d_4120_8f95_698decbc0eea o )  ) ) ( type_a4ca0b7e_608c_4aec_adac_4f14dcbe82ab_Class35 ( obj_62e77df5_d68d_4120_8f95_698decbc0eea o )  ) ) ( type_a4ca0b7e_608c_4aec_adac_4f14dcbe82ab_Class27 ( obj_62e77df5_d68d_4120_8f95_698decbc0eea o )  ) ) ( type_a4ca0b7e_608c_4aec_adac_4f14dcbe82ab_Class15 ( obj_62e77df5_d68d_4120_8f95_698decbc0eea o )  ) ) ( type_a4ca0b7e_608c_4aec_adac_4f14dcbe82ab_Class28 ( obj_62e77df5_d68d_4120_8f95_698decbc0eea o )  ) )):named c22))
(assert (! (exists ((o Int)) ( type_a4ca0b7e_608c_4aec_adac_4f14dcbe82ab_Class3 ( obj_62e77df5_d68d_4120_8f95_698decbc0eea o )  ) ):named c23))
(assert (! (exists ((o Int)) (and (and ( type_a4ca0b7e_608c_4aec_adac_4f14dcbe82ab_Class30 ( obj_62e77df5_d68d_4120_8f95_698decbc0eea o )  )  ( type_a4ca0b7e_608c_4aec_adac_4f14dcbe82ab_Class33 ( obj_62e77df5_d68d_4120_8f95_698decbc0eea o )  ) ) ( type_a4ca0b7e_608c_4aec_adac_4f14dcbe82ab_Class15 ( obj_62e77df5_d68d_4120_8f95_698decbc0eea o )  ) )):named c24))
(assert (! (exists ((o Int)) (and (and (and (and (and (and ( type_a4ca0b7e_608c_4aec_adac_4f14dcbe82ab_Class31 ( obj_62e77df5_d68d_4120_8f95_698decbc0eea o )  )  ( type_a4ca0b7e_608c_4aec_adac_4f14dcbe82ab_Class36 ( obj_62e77df5_d68d_4120_8f95_698decbc0eea o )  ) ) ( type_a4ca0b7e_608c_4aec_adac_4f14dcbe82ab_Class35 ( obj_62e77df5_d68d_4120_8f95_698decbc0eea o )  ) ) ( type_a4ca0b7e_608c_4aec_adac_4f14dcbe82ab_Class27 ( obj_62e77df5_d68d_4120_8f95_698decbc0eea o )  ) ) ( type_a4ca0b7e_608c_4aec_adac_4f14dcbe82ab_Class15 ( obj_62e77df5_d68d_4120_8f95_698decbc0eea o )  ) ) ( type_a4ca0b7e_608c_4aec_adac_4f14dcbe82ab_Class28 ( obj_62e77df5_d68d_4120_8f95_698decbc0eea o )  ) ) ( type_a4ca0b7e_608c_4aec_adac_4f14dcbe82ab_Class54 ( obj_62e77df5_d68d_4120_8f95_698decbc0eea o )  ) )):named c25))
(assert (! (exists ((o Int)) ( type_a4ca0b7e_608c_4aec_adac_4f14dcbe82ab_Class32 ( obj_62e77df5_d68d_4120_8f95_698decbc0eea o )  ) ):named c26))
(assert (! (exists ((o Int)) (and ( type_a4ca0b7e_608c_4aec_adac_4f14dcbe82ab_Class33 ( obj_62e77df5_d68d_4120_8f95_698decbc0eea o )  )  ( type_a4ca0b7e_608c_4aec_adac_4f14dcbe82ab_Class15 ( obj_62e77df5_d68d_4120_8f95_698decbc0eea o )  ) )):named c27))
(assert (! (exists ((o Int)) ( type_a4ca0b7e_608c_4aec_adac_4f14dcbe82ab_Class34 ( obj_62e77df5_d68d_4120_8f95_698decbc0eea o )  ) ):named c28))
(assert (! (exists ((o Int)) (and (and (and (and ( type_a4ca0b7e_608c_4aec_adac_4f14dcbe82ab_Class35 ( obj_62e77df5_d68d_4120_8f95_698decbc0eea o )  )  ( type_a4ca0b7e_608c_4aec_adac_4f14dcbe82ab_Class36 ( obj_62e77df5_d68d_4120_8f95_698decbc0eea o )  ) ) ( type_a4ca0b7e_608c_4aec_adac_4f14dcbe82ab_Class27 ( obj_62e77df5_d68d_4120_8f95_698decbc0eea o )  ) ) ( type_a4ca0b7e_608c_4aec_adac_4f14dcbe82ab_Class15 ( obj_62e77df5_d68d_4120_8f95_698decbc0eea o )  ) ) ( type_a4ca0b7e_608c_4aec_adac_4f14dcbe82ab_Class28 ( obj_62e77df5_d68d_4120_8f95_698decbc0eea o )  ) )):named c29))
(assert (! (exists ((o Int)) (and (and (and ( type_a4ca0b7e_608c_4aec_adac_4f14dcbe82ab_Class36 ( obj_62e77df5_d68d_4120_8f95_698decbc0eea o )  )  ( type_a4ca0b7e_608c_4aec_adac_4f14dcbe82ab_Class27 ( obj_62e77df5_d68d_4120_8f95_698decbc0eea o )  ) ) ( type_a4ca0b7e_608c_4aec_adac_4f14dcbe82ab_Class15 ( obj_62e77df5_d68d_4120_8f95_698decbc0eea o )  ) ) ( type_a4ca0b7e_608c_4aec_adac_4f14dcbe82ab_Class28 ( obj_62e77df5_d68d_4120_8f95_698decbc0eea o )  ) )):named c30))
(assert (! (exists ((o Int)) (and ( type_a4ca0b7e_608c_4aec_adac_4f14dcbe82ab_Class37 ( obj_62e77df5_d68d_4120_8f95_698decbc0eea o )  )  ( type_a4ca0b7e_608c_4aec_adac_4f14dcbe82ab_Class15 ( obj_62e77df5_d68d_4120_8f95_698decbc0eea o )  ) )):named c31))
(assert (! (exists ((o Int)) (and (and (and (and ( type_a4ca0b7e_608c_4aec_adac_4f14dcbe82ab_Class38 ( obj_62e77df5_d68d_4120_8f95_698decbc0eea o )  )  ( type_a4ca0b7e_608c_4aec_adac_4f14dcbe82ab_Class22 ( obj_62e77df5_d68d_4120_8f95_698decbc0eea o )  ) ) ( type_a4ca0b7e_608c_4aec_adac_4f14dcbe82ab_Class15 ( obj_62e77df5_d68d_4120_8f95_698decbc0eea o )  ) ) ( type_a4ca0b7e_608c_4aec_adac_4f14dcbe82ab_Class48 ( obj_62e77df5_d68d_4120_8f95_698decbc0eea o )  ) ) ( type_a4ca0b7e_608c_4aec_adac_4f14dcbe82ab_Class43 ( obj_62e77df5_d68d_4120_8f95_698decbc0eea o )  ) )):named c32))
(assert (! (exists ((o Int)) ( type_a4ca0b7e_608c_4aec_adac_4f14dcbe82ab_Class39 ( obj_62e77df5_d68d_4120_8f95_698decbc0eea o )  ) ):named c33))
(assert (! (exists ((o Int)) (and (and (and (and (and (and ( type_a4ca0b7e_608c_4aec_adac_4f14dcbe82ab_Class4 ( obj_62e77df5_d68d_4120_8f95_698decbc0eea o )  )  ( type_a4ca0b7e_608c_4aec_adac_4f14dcbe82ab_Class44 ( obj_62e77df5_d68d_4120_8f95_698decbc0eea o )  ) ) ( type_a4ca0b7e_608c_4aec_adac_4f14dcbe82ab_Class36 ( obj_62e77df5_d68d_4120_8f95_698decbc0eea o )  ) ) ( type_a4ca0b7e_608c_4aec_adac_4f14dcbe82ab_Class35 ( obj_62e77df5_d68d_4120_8f95_698decbc0eea o )  ) ) ( type_a4ca0b7e_608c_4aec_adac_4f14dcbe82ab_Class27 ( obj_62e77df5_d68d_4120_8f95_698decbc0eea o )  ) ) ( type_a4ca0b7e_608c_4aec_adac_4f14dcbe82ab_Class15 ( obj_62e77df5_d68d_4120_8f95_698decbc0eea o )  ) ) ( type_a4ca0b7e_608c_4aec_adac_4f14dcbe82ab_Class28 ( obj_62e77df5_d68d_4120_8f95_698decbc0eea o )  ) )):named c34))
(assert (! (exists ((o Int)) ( type_a4ca0b7e_608c_4aec_adac_4f14dcbe82ab_Class40 ( obj_62e77df5_d68d_4120_8f95_698decbc0eea o )  ) ):named c35))
(assert (! (exists ((o Int)) ( type_a4ca0b7e_608c_4aec_adac_4f14dcbe82ab_Class41 ( obj_62e77df5_d68d_4120_8f95_698decbc0eea o )  ) ):named c36))
(assert (! (exists ((o Int)) ( type_a4ca0b7e_608c_4aec_adac_4f14dcbe82ab_Class42 ( obj_62e77df5_d68d_4120_8f95_698decbc0eea o )  ) ):named c37))
(assert (! (exists ((o Int)) (and ( type_a4ca0b7e_608c_4aec_adac_4f14dcbe82ab_Class43 ( obj_62e77df5_d68d_4120_8f95_698decbc0eea o )  )  ( type_a4ca0b7e_608c_4aec_adac_4f14dcbe82ab_Class15 ( obj_62e77df5_d68d_4120_8f95_698decbc0eea o )  ) )):named c38))
(assert (! (exists ((o Int)) (and (and (and (and (and ( type_a4ca0b7e_608c_4aec_adac_4f14dcbe82ab_Class44 ( obj_62e77df5_d68d_4120_8f95_698decbc0eea o )  )  ( type_a4ca0b7e_608c_4aec_adac_4f14dcbe82ab_Class36 ( obj_62e77df5_d68d_4120_8f95_698decbc0eea o )  ) ) ( type_a4ca0b7e_608c_4aec_adac_4f14dcbe82ab_Class35 ( obj_62e77df5_d68d_4120_8f95_698decbc0eea o )  ) ) ( type_a4ca0b7e_608c_4aec_adac_4f14dcbe82ab_Class27 ( obj_62e77df5_d68d_4120_8f95_698decbc0eea o )  ) ) ( type_a4ca0b7e_608c_4aec_adac_4f14dcbe82ab_Class15 ( obj_62e77df5_d68d_4120_8f95_698decbc0eea o )  ) ) ( type_a4ca0b7e_608c_4aec_adac_4f14dcbe82ab_Class28 ( obj_62e77df5_d68d_4120_8f95_698decbc0eea o )  ) )):named c39))
(assert (! (exists ((o Int)) (and (and (and (and (and (and ( type_a4ca0b7e_608c_4aec_adac_4f14dcbe82ab_Class45 ( obj_62e77df5_d68d_4120_8f95_698decbc0eea o )  )  ( type_a4ca0b7e_608c_4aec_adac_4f14dcbe82ab_Class36 ( obj_62e77df5_d68d_4120_8f95_698decbc0eea o )  ) ) ( type_a4ca0b7e_608c_4aec_adac_4f14dcbe82ab_Class35 ( obj_62e77df5_d68d_4120_8f95_698decbc0eea o )  ) ) ( type_a4ca0b7e_608c_4aec_adac_4f14dcbe82ab_Class27 ( obj_62e77df5_d68d_4120_8f95_698decbc0eea o )  ) ) ( type_a4ca0b7e_608c_4aec_adac_4f14dcbe82ab_Class9 ( obj_62e77df5_d68d_4120_8f95_698decbc0eea o )  ) ) ( type_a4ca0b7e_608c_4aec_adac_4f14dcbe82ab_Class15 ( obj_62e77df5_d68d_4120_8f95_698decbc0eea o )  ) ) ( type_a4ca0b7e_608c_4aec_adac_4f14dcbe82ab_Class28 ( obj_62e77df5_d68d_4120_8f95_698decbc0eea o )  ) )):named c40))
(assert (! (exists ((o Int)) (and (and ( type_a4ca0b7e_608c_4aec_adac_4f14dcbe82ab_Class46 ( obj_62e77df5_d68d_4120_8f95_698decbc0eea o )  )  ( type_a4ca0b7e_608c_4aec_adac_4f14dcbe82ab_Class15 ( obj_62e77df5_d68d_4120_8f95_698decbc0eea o )  ) ) ( type_a4ca0b7e_608c_4aec_adac_4f14dcbe82ab_Class5 ( obj_62e77df5_d68d_4120_8f95_698decbc0eea o )  ) )):named c41))
(assert (! (exists ((o Int)) ( type_a4ca0b7e_608c_4aec_adac_4f14dcbe82ab_Class47 ( obj_62e77df5_d68d_4120_8f95_698decbc0eea o )  ) ):named c42))
(assert (! (exists ((o Int)) (and ( type_a4ca0b7e_608c_4aec_adac_4f14dcbe82ab_Class48 ( obj_62e77df5_d68d_4120_8f95_698decbc0eea o )  )  ( type_a4ca0b7e_608c_4aec_adac_4f14dcbe82ab_Class15 ( obj_62e77df5_d68d_4120_8f95_698decbc0eea o )  ) )):named c43))
(assert (! (exists ((o Int)) ( type_a4ca0b7e_608c_4aec_adac_4f14dcbe82ab_Class49 ( obj_62e77df5_d68d_4120_8f95_698decbc0eea o )  ) ):named c44))
(assert (! (exists ((o Int)) (and ( type_a4ca0b7e_608c_4aec_adac_4f14dcbe82ab_Class5 ( obj_62e77df5_d68d_4120_8f95_698decbc0eea o )  )  ( type_a4ca0b7e_608c_4aec_adac_4f14dcbe82ab_Class15 ( obj_62e77df5_d68d_4120_8f95_698decbc0eea o )  ) )):named c45))
(assert (! (exists ((o Int)) ( type_a4ca0b7e_608c_4aec_adac_4f14dcbe82ab_Class50 ( obj_62e77df5_d68d_4120_8f95_698decbc0eea o )  ) ):named c46))
(assert (! (exists ((o Int)) ( type_a4ca0b7e_608c_4aec_adac_4f14dcbe82ab_Class51 ( obj_62e77df5_d68d_4120_8f95_698decbc0eea o )  ) ):named c47))
(assert (! (exists ((o Int)) ( type_a4ca0b7e_608c_4aec_adac_4f14dcbe82ab_Class52 ( obj_62e77df5_d68d_4120_8f95_698decbc0eea o )  ) ):named c48))
(assert (! (exists ((o Int)) ( type_a4ca0b7e_608c_4aec_adac_4f14dcbe82ab_Class53 ( obj_62e77df5_d68d_4120_8f95_698decbc0eea o )  ) ):named c49))
(assert (! (exists ((o Int)) (and (and (and (and (and ( type_a4ca0b7e_608c_4aec_adac_4f14dcbe82ab_Class54 ( obj_62e77df5_d68d_4120_8f95_698decbc0eea o )  )  ( type_a4ca0b7e_608c_4aec_adac_4f14dcbe82ab_Class36 ( obj_62e77df5_d68d_4120_8f95_698decbc0eea o )  ) ) ( type_a4ca0b7e_608c_4aec_adac_4f14dcbe82ab_Class35 ( obj_62e77df5_d68d_4120_8f95_698decbc0eea o )  ) ) ( type_a4ca0b7e_608c_4aec_adac_4f14dcbe82ab_Class27 ( obj_62e77df5_d68d_4120_8f95_698decbc0eea o )  ) ) ( type_a4ca0b7e_608c_4aec_adac_4f14dcbe82ab_Class15 ( obj_62e77df5_d68d_4120_8f95_698decbc0eea o )  ) ) ( type_a4ca0b7e_608c_4aec_adac_4f14dcbe82ab_Class28 ( obj_62e77df5_d68d_4120_8f95_698decbc0eea o )  ) )):named c50))
(assert (! (exists ((o Int)) ( type_a4ca0b7e_608c_4aec_adac_4f14dcbe82ab_Class55 ( obj_62e77df5_d68d_4120_8f95_698decbc0eea o )  ) ):named c51))
(assert (! (exists ((o Int)) ( type_a4ca0b7e_608c_4aec_adac_4f14dcbe82ab_Class56 ( obj_62e77df5_d68d_4120_8f95_698decbc0eea o )  ) ):named c52))
(assert (! (exists ((o Int)) (and (and (and (and ( type_a4ca0b7e_608c_4aec_adac_4f14dcbe82ab_Class6 ( obj_62e77df5_d68d_4120_8f95_698decbc0eea o )  )  ( type_a4ca0b7e_608c_4aec_adac_4f14dcbe82ab_Class22 ( obj_62e77df5_d68d_4120_8f95_698decbc0eea o )  ) ) ( type_a4ca0b7e_608c_4aec_adac_4f14dcbe82ab_Class15 ( obj_62e77df5_d68d_4120_8f95_698decbc0eea o )  ) ) ( type_a4ca0b7e_608c_4aec_adac_4f14dcbe82ab_Class48 ( obj_62e77df5_d68d_4120_8f95_698decbc0eea o )  ) ) ( type_a4ca0b7e_608c_4aec_adac_4f14dcbe82ab_Class43 ( obj_62e77df5_d68d_4120_8f95_698decbc0eea o )  ) )):named c53))
(assert (! (exists ((o Int)) ( type_a4ca0b7e_608c_4aec_adac_4f14dcbe82ab_Class7 ( obj_62e77df5_d68d_4120_8f95_698decbc0eea o )  ) ):named c54))
(assert (! (exists ((o Int)) ( type_a4ca0b7e_608c_4aec_adac_4f14dcbe82ab_Class8 ( obj_62e77df5_d68d_4120_8f95_698decbc0eea o )  ) ):named c55))
(assert (! (exists ((o Int)) (and (and (and (and (and ( type_a4ca0b7e_608c_4aec_adac_4f14dcbe82ab_Class9 ( obj_62e77df5_d68d_4120_8f95_698decbc0eea o )  )  ( type_a4ca0b7e_608c_4aec_adac_4f14dcbe82ab_Class36 ( obj_62e77df5_d68d_4120_8f95_698decbc0eea o )  ) ) ( type_a4ca0b7e_608c_4aec_adac_4f14dcbe82ab_Class35 ( obj_62e77df5_d68d_4120_8f95_698decbc0eea o )  ) ) ( type_a4ca0b7e_608c_4aec_adac_4f14dcbe82ab_Class27 ( obj_62e77df5_d68d_4120_8f95_698decbc0eea o )  ) ) ( type_a4ca0b7e_608c_4aec_adac_4f14dcbe82ab_Class15 ( obj_62e77df5_d68d_4120_8f95_698decbc0eea o )  ) ) ( type_a4ca0b7e_608c_4aec_adac_4f14dcbe82ab_Class28 ( obj_62e77df5_d68d_4120_8f95_698decbc0eea o )  ) )):named c56))

 ;end of formula 